<instance format="XCSP3" type="COP">
  <variables>
    <array id="x" size="[114]"> 0..113 </array>
  </variables>
  <constraints>
    <group>
      <intension> ne(%0,%1) </intension>
      <args> x[0] x[1] </args>
      <args> x[0] x[3] </args>
      <args> x[0] x[19] </args>
      <args> x[0] x[21] </args>
      <args> x[1] x[2] </args>
      <args> x[1] x[18] </args>
      <args> x[1] x[20] </args>
      <args> x[2] x[5] </args>
      <args> x[2] x[13] </args>
      <args> x[2] x[19] </args>
      <args> x[2] x[23] </args>
      <args> x[2] x[31] </args>
      <args> x[3] x[4] </args>
      <args> x[3] x[13] </args>
      <args> x[3] x[18] </args>
      <args> x[3] x[22] </args>
      <args> x[3] x[31] </args>
      <args> x[4] x[7] </args>
      <args> x[4] x[14] </args>
      <args> x[4] x[21] </args>
      <args> x[4] x[25] </args>
      <args> x[4] x[32] </args>
      <args> x[5] x[6] </args>
      <args> x[5] x[14] </args>
      <args> x[5] x[20] </args>
      <args> x[5] x[24] </args>
      <args> x[5] x[32] </args>
      <args> x[6] x[9] </args>
      <args> x[6] x[15] </args>
      <args> x[6] x[23] </args>
      <args> x[6] x[27] </args>
      <args> x[6] x[33] </args>
      <args> x[7] x[8] </args>
      <args> x[7] x[15] </args>
      <args> x[7] x[22] </args>
      <args> x[7] x[26] </args>
      <args> x[7] x[33] </args>
      <args> x[8] x[11] </args>
      <args> x[8] x[16] </args>
      <args> x[8] x[25] </args>
      <args> x[8] x[29] </args>
      <args> x[8] x[34] </args>
      <args> x[9] x[10] </args>
      <args> x[9] x[16] </args>
      <args> x[9] x[24] </args>
      <args> x[9] x[28] </args>
      <args> x[9] x[34] </args>
      <args> x[10] x[12] </args>
      <args> x[10] x[17] </args>
      <args> x[10] x[27] </args>
      <args> x[10] x[30] </args>
      <args> x[10] x[35] </args>
      <args> x[11] x[12] </args>
      <args> x[11] x[17] </args>
      <args> x[11] x[26] </args>
      <args> x[11] x[30] </args>
      <args> x[11] x[35] </args>
      <args> x[12] x[13] </args>
      <args> x[12] x[14] </args>
      <args> x[12] x[15] </args>
      <args> x[12] x[16] </args>
      <args> x[12] x[17] </args>
      <args> x[12] x[28] </args>
      <args> x[12] x[29] </args>
      <args> x[12] x[31] </args>
      <args> x[12] x[32] </args>
      <args> x[12] x[33] </args>
      <args> x[12] x[34] </args>
      <args> x[12] x[35] </args>
      <args> x[13] x[14] </args>
      <args> x[13] x[15] </args>
      <args> x[13] x[16] </args>
      <args> x[13] x[17] </args>
      <args> x[13] x[20] </args>
      <args> x[13] x[21] </args>
      <args> x[13] x[30] </args>
      <args> x[13] x[32] </args>
      <args> x[13] x[33] </args>
      <args> x[13] x[34] </args>
      <args> x[13] x[35] </args>
      <args> x[14] x[15] </args>
      <args> x[14] x[16] </args>
      <args> x[14] x[17] </args>
      <args> x[14] x[22] </args>
      <args> x[14] x[23] </args>
      <args> x[14] x[30] </args>
      <args> x[14] x[31] </args>
      <args> x[14] x[33] </args>
      <args> x[14] x[34] </args>
      <args> x[14] x[35] </args>
      <args> x[15] x[16] </args>
      <args> x[15] x[17] </args>
      <args> x[15] x[24] </args>
      <args> x[15] x[25] </args>
      <args> x[15] x[30] </args>
      <args> x[15] x[31] </args>
      <args> x[15] x[32] </args>
      <args> x[15] x[34] </args>
      <args> x[15] x[35] </args>
      <args> x[16] x[17] </args>
      <args> x[16] x[26] </args>
      <args> x[16] x[27] </args>
      <args> x[16] x[30] </args>
      <args> x[16] x[31] </args>
      <args> x[16] x[32] </args>
      <args> x[16] x[33] </args>
      <args> x[16] x[35] </args>
      <args> x[17] x[28] </args>
      <args> x[17] x[29] </args>
      <args> x[17] x[30] </args>
      <args> x[17] x[31] </args>
      <args> x[17] x[32] </args>
      <args> x[17] x[33] </args>
      <args> x[17] x[34] </args>
      <args> x[18] x[37] </args>
      <args> x[18] x[39] </args>
      <args> x[18] x[109] </args>
      <args> x[19] x[36] </args>
      <args> x[19] x[38] </args>
      <args> x[19] x[109] </args>
      <args> x[20] x[37] </args>
      <args> x[20] x[41] </args>
      <args> x[20] x[49] </args>
      <args> x[20] x[109] </args>
      <args> x[21] x[36] </args>
      <args> x[21] x[40] </args>
      <args> x[21] x[49] </args>
      <args> x[21] x[109] </args>
      <args> x[22] x[39] </args>
      <args> x[22] x[43] </args>
      <args> x[22] x[50] </args>
      <args> x[22] x[109] </args>
      <args> x[23] x[38] </args>
      <args> x[23] x[42] </args>
      <args> x[23] x[50] </args>
      <args> x[23] x[109] </args>
      <args> x[24] x[41] </args>
      <args> x[24] x[45] </args>
      <args> x[24] x[51] </args>
      <args> x[24] x[109] </args>
      <args> x[25] x[40] </args>
      <args> x[25] x[44] </args>
      <args> x[25] x[51] </args>
      <args> x[25] x[109] </args>
      <args> x[26] x[43] </args>
      <args> x[26] x[47] </args>
      <args> x[26] x[52] </args>
      <args> x[26] x[109] </args>
      <args> x[27] x[42] </args>
      <args> x[27] x[46] </args>
      <args> x[27] x[52] </args>
      <args> x[27] x[109] </args>
      <args> x[28] x[45] </args>
      <args> x[28] x[48] </args>
      <args> x[28] x[53] </args>
      <args> x[28] x[109] </args>
      <args> x[29] x[44] </args>
      <args> x[29] x[48] </args>
      <args> x[29] x[53] </args>
      <args> x[29] x[109] </args>
      <args> x[30] x[46] </args>
      <args> x[30] x[47] </args>
      <args> x[30] x[49] </args>
      <args> x[30] x[50] </args>
      <args> x[30] x[51] </args>
      <args> x[30] x[52] </args>
      <args> x[30] x[53] </args>
      <args> x[30] x[109] </args>
      <args> x[31] x[38] </args>
      <args> x[31] x[39] </args>
      <args> x[31] x[48] </args>
      <args> x[31] x[50] </args>
      <args> x[31] x[51] </args>
      <args> x[31] x[52] </args>
      <args> x[31] x[53] </args>
      <args> x[31] x[109] </args>
      <args> x[32] x[40] </args>
      <args> x[32] x[41] </args>
      <args> x[32] x[48] </args>
      <args> x[32] x[49] </args>
      <args> x[32] x[51] </args>
      <args> x[32] x[52] </args>
      <args> x[32] x[53] </args>
      <args> x[32] x[109] </args>
      <args> x[33] x[42] </args>
      <args> x[33] x[43] </args>
      <args> x[33] x[48] </args>
      <args> x[33] x[49] </args>
      <args> x[33] x[50] </args>
      <args> x[33] x[52] </args>
      <args> x[33] x[53] </args>
      <args> x[33] x[109] </args>
      <args> x[34] x[44] </args>
      <args> x[34] x[45] </args>
      <args> x[34] x[48] </args>
      <args> x[34] x[49] </args>
      <args> x[34] x[50] </args>
      <args> x[34] x[51] </args>
      <args> x[34] x[53] </args>
      <args> x[34] x[109] </args>
      <args> x[35] x[46] </args>
      <args> x[35] x[47] </args>
      <args> x[35] x[48] </args>
      <args> x[35] x[49] </args>
      <args> x[35] x[50] </args>
      <args> x[35] x[51] </args>
      <args> x[35] x[52] </args>
      <args> x[35] x[109] </args>
      <args> x[36] x[55] </args>
      <args> x[36] x[57] </args>
      <args> x[36] x[110] </args>
      <args> x[37] x[54] </args>
      <args> x[37] x[56] </args>
      <args> x[37] x[110] </args>
      <args> x[38] x[55] </args>
      <args> x[38] x[59] </args>
      <args> x[38] x[67] </args>
      <args> x[38] x[110] </args>
      <args> x[39] x[54] </args>
      <args> x[39] x[58] </args>
      <args> x[39] x[67] </args>
      <args> x[39] x[110] </args>
      <args> x[40] x[57] </args>
      <args> x[40] x[61] </args>
      <args> x[40] x[68] </args>
      <args> x[40] x[110] </args>
      <args> x[41] x[56] </args>
      <args> x[41] x[60] </args>
      <args> x[41] x[68] </args>
      <args> x[41] x[110] </args>
      <args> x[42] x[59] </args>
      <args> x[42] x[63] </args>
      <args> x[42] x[69] </args>
      <args> x[42] x[110] </args>
      <args> x[43] x[58] </args>
      <args> x[43] x[62] </args>
      <args> x[43] x[69] </args>
      <args> x[43] x[110] </args>
      <args> x[44] x[61] </args>
      <args> x[44] x[65] </args>
      <args> x[44] x[70] </args>
      <args> x[44] x[110] </args>
      <args> x[45] x[60] </args>
      <args> x[45] x[64] </args>
      <args> x[45] x[70] </args>
      <args> x[45] x[110] </args>
      <args> x[46] x[63] </args>
      <args> x[46] x[66] </args>
      <args> x[46] x[71] </args>
      <args> x[46] x[110] </args>
      <args> x[47] x[62] </args>
      <args> x[47] x[66] </args>
      <args> x[47] x[71] </args>
      <args> x[47] x[110] </args>
      <args> x[48] x[64] </args>
      <args> x[48] x[65] </args>
      <args> x[48] x[67] </args>
      <args> x[48] x[68] </args>
      <args> x[48] x[69] </args>
      <args> x[48] x[70] </args>
      <args> x[48] x[71] </args>
      <args> x[48] x[110] </args>
      <args> x[49] x[56] </args>
      <args> x[49] x[57] </args>
      <args> x[49] x[66] </args>
      <args> x[49] x[68] </args>
      <args> x[49] x[69] </args>
      <args> x[49] x[70] </args>
      <args> x[49] x[71] </args>
      <args> x[49] x[110] </args>
      <args> x[50] x[58] </args>
      <args> x[50] x[59] </args>
      <args> x[50] x[66] </args>
      <args> x[50] x[67] </args>
      <args> x[50] x[69] </args>
      <args> x[50] x[70] </args>
      <args> x[50] x[71] </args>
      <args> x[50] x[110] </args>
      <args> x[51] x[60] </args>
      <args> x[51] x[61] </args>
      <args> x[51] x[66] </args>
      <args> x[51] x[67] </args>
      <args> x[51] x[68] </args>
      <args> x[51] x[70] </args>
      <args> x[51] x[71] </args>
      <args> x[51] x[110] </args>
      <args> x[52] x[62] </args>
      <args> x[52] x[63] </args>
      <args> x[52] x[66] </args>
      <args> x[52] x[67] </args>
      <args> x[52] x[68] </args>
      <args> x[52] x[69] </args>
      <args> x[52] x[71] </args>
      <args> x[52] x[110] </args>
      <args> x[53] x[64] </args>
      <args> x[53] x[65] </args>
      <args> x[53] x[66] </args>
      <args> x[53] x[67] </args>
      <args> x[53] x[68] </args>
      <args> x[53] x[69] </args>
      <args> x[53] x[70] </args>
      <args> x[53] x[110] </args>
      <args> x[54] x[73] </args>
      <args> x[54] x[75] </args>
      <args> x[54] x[111] </args>
      <args> x[55] x[72] </args>
      <args> x[55] x[74] </args>
      <args> x[55] x[111] </args>
      <args> x[56] x[73] </args>
      <args> x[56] x[77] </args>
      <args> x[56] x[85] </args>
      <args> x[56] x[111] </args>
      <args> x[57] x[72] </args>
      <args> x[57] x[76] </args>
      <args> x[57] x[85] </args>
      <args> x[57] x[111] </args>
      <args> x[58] x[75] </args>
      <args> x[58] x[79] </args>
      <args> x[58] x[86] </args>
      <args> x[58] x[111] </args>
      <args> x[59] x[74] </args>
      <args> x[59] x[78] </args>
      <args> x[59] x[86] </args>
      <args> x[59] x[111] </args>
      <args> x[60] x[77] </args>
      <args> x[60] x[81] </args>
      <args> x[60] x[87] </args>
      <args> x[60] x[111] </args>
      <args> x[61] x[76] </args>
      <args> x[61] x[80] </args>
      <args> x[61] x[87] </args>
      <args> x[61] x[111] </args>
      <args> x[62] x[79] </args>
      <args> x[62] x[83] </args>
      <args> x[62] x[88] </args>
      <args> x[62] x[111] </args>
      <args> x[63] x[78] </args>
      <args> x[63] x[82] </args>
      <args> x[63] x[88] </args>
      <args> x[63] x[111] </args>
      <args> x[64] x[81] </args>
      <args> x[64] x[84] </args>
      <args> x[64] x[89] </args>
      <args> x[64] x[111] </args>
      <args> x[65] x[80] </args>
      <args> x[65] x[84] </args>
      <args> x[65] x[89] </args>
      <args> x[65] x[111] </args>
      <args> x[66] x[82] </args>
      <args> x[66] x[83] </args>
      <args> x[66] x[85] </args>
      <args> x[66] x[86] </args>
      <args> x[66] x[87] </args>
      <args> x[66] x[88] </args>
      <args> x[66] x[89] </args>
      <args> x[66] x[111] </args>
      <args> x[67] x[74] </args>
      <args> x[67] x[75] </args>
      <args> x[67] x[84] </args>
      <args> x[67] x[86] </args>
      <args> x[67] x[87] </args>
      <args> x[67] x[88] </args>
      <args> x[67] x[89] </args>
      <args> x[67] x[111] </args>
      <args> x[68] x[76] </args>
      <args> x[68] x[77] </args>
      <args> x[68] x[84] </args>
      <args> x[68] x[85] </args>
      <args> x[68] x[87] </args>
      <args> x[68] x[88] </args>
      <args> x[68] x[89] </args>
      <args> x[68] x[111] </args>
      <args> x[69] x[78] </args>
      <args> x[69] x[79] </args>
      <args> x[69] x[84] </args>
      <args> x[69] x[85] </args>
      <args> x[69] x[86] </args>
      <args> x[69] x[88] </args>
      <args> x[69] x[89] </args>
      <args> x[69] x[111] </args>
      <args> x[70] x[80] </args>
      <args> x[70] x[81] </args>
      <args> x[70] x[84] </args>
      <args> x[70] x[85] </args>
      <args> x[70] x[86] </args>
      <args> x[70] x[87] </args>
      <args> x[70] x[89] </args>
      <args> x[70] x[111] </args>
      <args> x[71] x[82] </args>
      <args> x[71] x[83] </args>
      <args> x[71] x[84] </args>
      <args> x[71] x[85] </args>
      <args> x[71] x[86] </args>
      <args> x[71] x[87] </args>
      <args> x[71] x[88] </args>
      <args> x[71] x[111] </args>
      <args> x[72] x[91] </args>
      <args> x[72] x[93] </args>
      <args> x[72] x[112] </args>
      <args> x[73] x[90] </args>
      <args> x[73] x[92] </args>
      <args> x[73] x[112] </args>
      <args> x[74] x[91] </args>
      <args> x[74] x[95] </args>
      <args> x[74] x[103] </args>
      <args> x[74] x[112] </args>
      <args> x[75] x[90] </args>
      <args> x[75] x[94] </args>
      <args> x[75] x[103] </args>
      <args> x[75] x[112] </args>
      <args> x[76] x[93] </args>
      <args> x[76] x[97] </args>
      <args> x[76] x[104] </args>
      <args> x[76] x[112] </args>
      <args> x[77] x[92] </args>
      <args> x[77] x[96] </args>
      <args> x[77] x[104] </args>
      <args> x[77] x[112] </args>
      <args> x[78] x[95] </args>
      <args> x[78] x[99] </args>
      <args> x[78] x[105] </args>
      <args> x[78] x[112] </args>
      <args> x[79] x[94] </args>
      <args> x[79] x[98] </args>
      <args> x[79] x[105] </args>
      <args> x[79] x[112] </args>
      <args> x[80] x[97] </args>
      <args> x[80] x[101] </args>
      <args> x[80] x[106] </args>
      <args> x[80] x[112] </args>
      <args> x[81] x[96] </args>
      <args> x[81] x[100] </args>
      <args> x[81] x[106] </args>
      <args> x[81] x[112] </args>
      <args> x[82] x[99] </args>
      <args> x[82] x[102] </args>
      <args> x[82] x[107] </args>
      <args> x[82] x[112] </args>
      <args> x[83] x[98] </args>
      <args> x[83] x[102] </args>
      <args> x[83] x[107] </args>
      <args> x[83] x[112] </args>
      <args> x[84] x[100] </args>
      <args> x[84] x[101] </args>
      <args> x[84] x[103] </args>
      <args> x[84] x[104] </args>
      <args> x[84] x[105] </args>
      <args> x[84] x[106] </args>
      <args> x[84] x[107] </args>
      <args> x[84] x[112] </args>
      <args> x[85] x[92] </args>
      <args> x[85] x[93] </args>
      <args> x[85] x[102] </args>
      <args> x[85] x[104] </args>
      <args> x[85] x[105] </args>
      <args> x[85] x[106] </args>
      <args> x[85] x[107] </args>
      <args> x[85] x[112] </args>
      <args> x[86] x[94] </args>
      <args> x[86] x[95] </args>
      <args> x[86] x[102] </args>
      <args> x[86] x[103] </args>
      <args> x[86] x[105] </args>
      <args> x[86] x[106] </args>
      <args> x[86] x[107] </args>
      <args> x[86] x[112] </args>
      <args> x[87] x[96] </args>
      <args> x[87] x[97] </args>
      <args> x[87] x[102] </args>
      <args> x[87] x[103] </args>
      <args> x[87] x[104] </args>
      <args> x[87] x[106] </args>
      <args> x[87] x[107] </args>
      <args> x[87] x[112] </args>
      <args> x[88] x[98] </args>
      <args> x[88] x[99] </args>
      <args> x[88] x[102] </args>
      <args> x[88] x[103] </args>
      <args> x[88] x[104] </args>
      <args> x[88] x[105] </args>
      <args> x[88] x[107] </args>
      <args> x[88] x[112] </args>
      <args> x[89] x[100] </args>
      <args> x[89] x[101] </args>
      <args> x[89] x[102] </args>
      <args> x[89] x[103] </args>
      <args> x[89] x[104] </args>
      <args> x[89] x[105] </args>
      <args> x[89] x[106] </args>
      <args> x[89] x[112] </args>
      <args> x[90] x[108] </args>
      <args> x[90] x[113] </args>
      <args> x[91] x[108] </args>
      <args> x[91] x[113] </args>
      <args> x[92] x[108] </args>
      <args> x[92] x[113] </args>
      <args> x[93] x[108] </args>
      <args> x[93] x[113] </args>
      <args> x[94] x[108] </args>
      <args> x[94] x[113] </args>
      <args> x[95] x[108] </args>
      <args> x[95] x[113] </args>
      <args> x[96] x[108] </args>
      <args> x[96] x[113] </args>
      <args> x[97] x[108] </args>
      <args> x[97] x[113] </args>
      <args> x[98] x[108] </args>
      <args> x[98] x[113] </args>
      <args> x[99] x[108] </args>
      <args> x[99] x[113] </args>
      <args> x[100] x[108] </args>
      <args> x[100] x[113] </args>
      <args> x[101] x[108] </args>
      <args> x[101] x[113] </args>
      <args> x[102] x[108] </args>
      <args> x[102] x[113] </args>
      <args> x[103] x[108] </args>
      <args> x[103] x[113] </args>
      <args> x[104] x[108] </args>
      <args> x[104] x[113] </args>
      <args> x[105] x[108] </args>
      <args> x[105] x[113] </args>
      <args> x[106] x[108] </args>
      <args> x[106] x[113] </args>
      <args> x[107] x[108] </args>
      <args> x[107] x[113] </args>
      <args> x[108] x[109] </args>
      <args> x[108] x[110] </args>
      <args> x[108] x[111] </args>
      <args> x[108] x[112] </args>
      <args> x[108] x[113] </args>
      <args> x[109] x[110] </args>
      <args> x[109] x[111] </args>
      <args> x[109] x[112] </args>
      <args> x[109] x[113] </args>
      <args> x[110] x[111] </args>
      <args> x[110] x[112] </args>
      <args> x[110] x[113] </args>
      <args> x[111] x[112] </args>
      <args> x[111] x[113] </args>
      <args> x[112] x[113] </args>
    </group>
  </constraints>
  <objectives>
    <minimize type="maximum"> x[] </minimize>
  </objectives>
</instance>
